num_wann    =  24
num_bands   = 30

# Wannier functions without maximal localization
num_iter    = 0

dis_num_iter  = 5000
dis_win_max   = 33.52
dis_froz_max  = 20.57
dis_mix_ratio = 0.3
dis_conv_tol  = 1.d-10

begin atoms_frac
C  0.0000000  -0.3333333  -0.4583333
C  0.0000000  -0.3333333  -0.2083333
C -0.3333333   0.0000000  -0.1250000
C -0.3333333   0.0000000   0.1250000
C  0.3333333   0.3333333   0.2083333
C  0.3333333   0.3333333   0.4583333
end atoms_frac

begin projections
#C:sp3
f= 0.0000000,-0.3333333,-0.4583333:sp3:z=-0.7071,-0.4082, 0.5774:x= 0.7071,-0.4082, 0.5774
f= 0.0000000,-0.3333333,-0.2083333:sp3:z=-0.7071, 0.4082,-0.5774:x= 0.7071, 0.4082,-0.5774
f=-0.3333333, 0.0000000,-0.1250000:sp3:z=-0.7071,-0.4082, 0.5774:x= 0.7071,-0.4082, 0.5774
f=-0.3333333, 0.0000000, 0.1250000:sp3:z=-0.7071, 0.4082,-0.5774:x= 0.7071, 0.4082,-0.5774
f= 0.3333333, 0.3333333, 0.2083333:sp3:z=-0.7071,-0.4082, 0.5774:x= 0.7071,-0.4082, 0.5774
f= 0.3333333, 0.3333333, 0.4583333:sp3:z=-0.7071, 0.4082,-0.5774:x= 0.7071, 0.4082,-0.5774
end projections

begin unit_cell_cart
Bohr
 4.76590 0.000000000000000 0.0000000000
-2.38295 4.127390471896549 0.0000000000
 0.00000 0.000000000000000 11.674024391
end unit_cell_cart

write_hr = .true.

mp_grid = 5 5 4
begin kpoints
  0.00000000  0.00000000  0.00000000
  0.00000000  0.00000000  0.25000000
  0.00000000  0.00000000  0.50000000
  0.00000000  0.00000000  0.75000000
  0.00000000  0.20000000  0.00000000
  0.00000000  0.20000000  0.25000000
  0.00000000  0.20000000  0.50000000
  0.00000000  0.20000000  0.75000000
  0.00000000  0.40000000  0.00000000
  0.00000000  0.40000000  0.25000000
  0.00000000  0.40000000  0.50000000
  0.00000000  0.40000000  0.75000000
  0.00000000  0.60000000  0.00000000
  0.00000000  0.60000000  0.25000000
  0.00000000  0.60000000  0.50000000
  0.00000000  0.60000000  0.75000000
  0.00000000  0.80000000  0.00000000
  0.00000000  0.80000000  0.25000000
  0.00000000  0.80000000  0.50000000
  0.00000000  0.80000000  0.75000000
  0.20000000  0.00000000  0.00000000
  0.20000000  0.00000000  0.25000000
  0.20000000  0.00000000  0.50000000
  0.20000000  0.00000000  0.75000000
  0.20000000  0.20000000  0.00000000
  0.20000000  0.20000000  0.25000000
  0.20000000  0.20000000  0.50000000
  0.20000000  0.20000000  0.75000000
  0.20000000  0.40000000  0.00000000
  0.20000000  0.40000000  0.25000000
  0.20000000  0.40000000  0.50000000
  0.20000000  0.40000000  0.75000000
  0.20000000  0.60000000  0.00000000
  0.20000000  0.60000000  0.25000000
  0.20000000  0.60000000  0.50000000
  0.20000000  0.60000000  0.75000000
  0.20000000  0.80000000  0.00000000
  0.20000000  0.80000000  0.25000000
  0.20000000  0.80000000  0.50000000
  0.20000000  0.80000000  0.75000000
  0.40000000  0.00000000  0.00000000
  0.40000000  0.00000000  0.25000000
  0.40000000  0.00000000  0.50000000
  0.40000000  0.00000000  0.75000000
  0.40000000  0.20000000  0.00000000
  0.40000000  0.20000000  0.25000000
  0.40000000  0.20000000  0.50000000
  0.40000000  0.20000000  0.75000000
  0.40000000  0.40000000  0.00000000
  0.40000000  0.40000000  0.25000000
  0.40000000  0.40000000  0.50000000
  0.40000000  0.40000000  0.75000000
  0.40000000  0.60000000  0.00000000
  0.40000000  0.60000000  0.25000000
  0.40000000  0.60000000  0.50000000
  0.40000000  0.60000000  0.75000000
  0.40000000  0.80000000  0.00000000
  0.40000000  0.80000000  0.25000000
  0.40000000  0.80000000  0.50000000
  0.40000000  0.80000000  0.75000000
  0.60000000  0.00000000  0.00000000
  0.60000000  0.00000000  0.25000000
  0.60000000  0.00000000  0.50000000
  0.60000000  0.00000000  0.75000000
  0.60000000  0.20000000  0.00000000
  0.60000000  0.20000000  0.25000000
  0.60000000  0.20000000  0.50000000
  0.60000000  0.20000000  0.75000000
  0.60000000  0.40000000  0.00000000
  0.60000000  0.40000000  0.25000000
  0.60000000  0.40000000  0.50000000
  0.60000000  0.40000000  0.75000000
  0.60000000  0.60000000  0.00000000
  0.60000000  0.60000000  0.25000000
  0.60000000  0.60000000  0.50000000
  0.60000000  0.60000000  0.75000000
  0.60000000  0.80000000  0.00000000
  0.60000000  0.80000000  0.25000000
  0.60000000  0.80000000  0.50000000
  0.60000000  0.80000000  0.75000000
  0.80000000  0.00000000  0.00000000
  0.80000000  0.00000000  0.25000000
  0.80000000  0.00000000  0.50000000
  0.80000000  0.00000000  0.75000000
  0.80000000  0.20000000  0.00000000
  0.80000000  0.20000000  0.25000000
  0.80000000  0.20000000  0.50000000
  0.80000000  0.20000000  0.75000000
  0.80000000  0.40000000  0.00000000
  0.80000000  0.40000000  0.25000000
  0.80000000  0.40000000  0.50000000
  0.80000000  0.40000000  0.75000000
  0.80000000  0.60000000  0.00000000
  0.80000000  0.60000000  0.25000000
  0.80000000  0.60000000  0.50000000
  0.80000000  0.60000000  0.75000000
  0.80000000  0.80000000  0.00000000
  0.80000000  0.80000000  0.25000000
  0.80000000  0.80000000  0.50000000
  0.80000000  0.80000000  0.75000000
end kpoints
