&control
  calculation = 'bands'
  restart_mode = 'from_scratch',
  prefix = 'diam.bulk'
  pseudo_dir = '../pseudo/'
  outdir = 'temp/'
  verbosity = 'high'
/
&system
  ibrav = 4
  celldm(1) = 4.7659
  celldm(3) = 2.44949
  nat = 6
  ntyp = 1
  ecutwfc = 60.0
  nbnd = 30
  occupations = 'smearing', smearing = 'm-p'
  degauss = 0.01
/
&electrons
  conv_thr =  1.0d-10
/
ATOMIC_SPECIES
 C  12.0  C.rel-pbesol-nc.UPF
ATOMIC_POSITIONS {crystal}
C  0.0000000  -0.3333333  -0.4583333
C  0.0000000  -0.3333333  -0.2083333
C -0.3333333   0.0000000  -0.1250000
C -0.3333333   0.0000000   0.1250000
C  0.3333333   0.3333333   0.2083333
C  0.3333333   0.3333333   0.4583333
K_POINTS crystal
100
  0.00000000  0.00000000  0.00000000  1.000000e-02
  0.00000000  0.00000000  0.25000000  1.000000e-02
  0.00000000  0.00000000  0.50000000  1.000000e-02
  0.00000000  0.00000000  0.75000000  1.000000e-02
  0.00000000  0.20000000  0.00000000  1.000000e-02
  0.00000000  0.20000000  0.25000000  1.000000e-02
  0.00000000  0.20000000  0.50000000  1.000000e-02
  0.00000000  0.20000000  0.75000000  1.000000e-02
  0.00000000  0.40000000  0.00000000  1.000000e-02
  0.00000000  0.40000000  0.25000000  1.000000e-02
  0.00000000  0.40000000  0.50000000  1.000000e-02
  0.00000000  0.40000000  0.75000000  1.000000e-02
  0.00000000  0.60000000  0.00000000  1.000000e-02
  0.00000000  0.60000000  0.25000000  1.000000e-02
  0.00000000  0.60000000  0.50000000  1.000000e-02
  0.00000000  0.60000000  0.75000000  1.000000e-02
  0.00000000  0.80000000  0.00000000  1.000000e-02
  0.00000000  0.80000000  0.25000000  1.000000e-02
  0.00000000  0.80000000  0.50000000  1.000000e-02
  0.00000000  0.80000000  0.75000000  1.000000e-02
  0.20000000  0.00000000  0.00000000  1.000000e-02
  0.20000000  0.00000000  0.25000000  1.000000e-02
  0.20000000  0.00000000  0.50000000  1.000000e-02
  0.20000000  0.00000000  0.75000000  1.000000e-02
  0.20000000  0.20000000  0.00000000  1.000000e-02
  0.20000000  0.20000000  0.25000000  1.000000e-02
  0.20000000  0.20000000  0.50000000  1.000000e-02
  0.20000000  0.20000000  0.75000000  1.000000e-02
  0.20000000  0.40000000  0.00000000  1.000000e-02
  0.20000000  0.40000000  0.25000000  1.000000e-02
  0.20000000  0.40000000  0.50000000  1.000000e-02
  0.20000000  0.40000000  0.75000000  1.000000e-02
  0.20000000  0.60000000  0.00000000  1.000000e-02
  0.20000000  0.60000000  0.25000000  1.000000e-02
  0.20000000  0.60000000  0.50000000  1.000000e-02
  0.20000000  0.60000000  0.75000000  1.000000e-02
  0.20000000  0.80000000  0.00000000  1.000000e-02
  0.20000000  0.80000000  0.25000000  1.000000e-02
  0.20000000  0.80000000  0.50000000  1.000000e-02
  0.20000000  0.80000000  0.75000000  1.000000e-02
  0.40000000  0.00000000  0.00000000  1.000000e-02
  0.40000000  0.00000000  0.25000000  1.000000e-02
  0.40000000  0.00000000  0.50000000  1.000000e-02
  0.40000000  0.00000000  0.75000000  1.000000e-02
  0.40000000  0.20000000  0.00000000  1.000000e-02
  0.40000000  0.20000000  0.25000000  1.000000e-02
  0.40000000  0.20000000  0.50000000  1.000000e-02
  0.40000000  0.20000000  0.75000000  1.000000e-02
  0.40000000  0.40000000  0.00000000  1.000000e-02
  0.40000000  0.40000000  0.25000000  1.000000e-02
  0.40000000  0.40000000  0.50000000  1.000000e-02
  0.40000000  0.40000000  0.75000000  1.000000e-02
  0.40000000  0.60000000  0.00000000  1.000000e-02
  0.40000000  0.60000000  0.25000000  1.000000e-02
  0.40000000  0.60000000  0.50000000  1.000000e-02
  0.40000000  0.60000000  0.75000000  1.000000e-02
  0.40000000  0.80000000  0.00000000  1.000000e-02
  0.40000000  0.80000000  0.25000000  1.000000e-02
  0.40000000  0.80000000  0.50000000  1.000000e-02
  0.40000000  0.80000000  0.75000000  1.000000e-02
  0.60000000  0.00000000  0.00000000  1.000000e-02
  0.60000000  0.00000000  0.25000000  1.000000e-02
  0.60000000  0.00000000  0.50000000  1.000000e-02
  0.60000000  0.00000000  0.75000000  1.000000e-02
  0.60000000  0.20000000  0.00000000  1.000000e-02
  0.60000000  0.20000000  0.25000000  1.000000e-02
  0.60000000  0.20000000  0.50000000  1.000000e-02
  0.60000000  0.20000000  0.75000000  1.000000e-02
  0.60000000  0.40000000  0.00000000  1.000000e-02
  0.60000000  0.40000000  0.25000000  1.000000e-02
  0.60000000  0.40000000  0.50000000  1.000000e-02
  0.60000000  0.40000000  0.75000000  1.000000e-02
  0.60000000  0.60000000  0.00000000  1.000000e-02
  0.60000000  0.60000000  0.25000000  1.000000e-02
  0.60000000  0.60000000  0.50000000  1.000000e-02
  0.60000000  0.60000000  0.75000000  1.000000e-02
  0.60000000  0.80000000  0.00000000  1.000000e-02
  0.60000000  0.80000000  0.25000000  1.000000e-02
  0.60000000  0.80000000  0.50000000  1.000000e-02
  0.60000000  0.80000000  0.75000000  1.000000e-02
  0.80000000  0.00000000  0.00000000  1.000000e-02
  0.80000000  0.00000000  0.25000000  1.000000e-02
  0.80000000  0.00000000  0.50000000  1.000000e-02
  0.80000000  0.00000000  0.75000000  1.000000e-02
  0.80000000  0.20000000  0.00000000  1.000000e-02
  0.80000000  0.20000000  0.25000000  1.000000e-02
  0.80000000  0.20000000  0.50000000  1.000000e-02
  0.80000000  0.20000000  0.75000000  1.000000e-02
  0.80000000  0.40000000  0.00000000  1.000000e-02
  0.80000000  0.40000000  0.25000000  1.000000e-02
  0.80000000  0.40000000  0.50000000  1.000000e-02
  0.80000000  0.40000000  0.75000000  1.000000e-02
  0.80000000  0.60000000  0.00000000  1.000000e-02
  0.80000000  0.60000000  0.25000000  1.000000e-02
  0.80000000  0.60000000  0.50000000  1.000000e-02
  0.80000000  0.60000000  0.75000000  1.000000e-02
  0.80000000  0.80000000  0.00000000  1.000000e-02
  0.80000000  0.80000000  0.25000000  1.000000e-02
  0.80000000  0.80000000  0.50000000  1.000000e-02
  0.80000000  0.80000000  0.75000000  1.000000e-02
