 &control
  calculation  = 'bands'
  restart_mode = 'from_scratch'
  prefix       = 'GeTe.bulk'
  pseudo_dir   = '../pseudo/'
  outdir       = 'temp/'
  verbosity    = 'high'
 /
&system
  ibrav        = 4
  celldm(1)    = 7.8948
  celldm(3)    = 2.5081
  nat          = 6
  ntyp         = 2
  ecutwfc      = 50
  noncolin     = .TRUE.
  lspinorb     = .TRUE.
  starting_magnetization(1) = 0.0
  occupations  = 'smearing'
  smearing     = 'm-v'
  degauss      = 0.02
  nbnd         = 60
/
&electrons
  conv_thr = 1.d-8
/
ATOMIC_SPECIES
 Ge 72.61 Ge.rel-pbesol-n-nc.UPF
 Te 127.6 Te.rel-pbesol-n-nc.UPF
ATOMIC_POSITIONS { crystal }
Ge  0.33333333 -0.33333333  0.4058502
Te -0.33333333  0.33333333  0.2608165
Ge  0.00000000  0.00000000  0.0725168
Te  0.33333333 -0.33333333 -0.0725168
Ge -0.33333333  0.33333333 -0.2608165
Te  0.00000000  0.00000000 -0.4058502
K_POINTS crystal
75
  0.00000000  0.00000000  0.00000000  1.333333e-02
  0.00000000  0.00000000  0.33333333  1.333333e-02
  0.00000000  0.00000000  0.66666667  1.333333e-02
  0.00000000  0.20000000  0.00000000  1.333333e-02
  0.00000000  0.20000000  0.33333333  1.333333e-02
  0.00000000  0.20000000  0.66666667  1.333333e-02
  0.00000000  0.40000000  0.00000000  1.333333e-02
  0.00000000  0.40000000  0.33333333  1.333333e-02
  0.00000000  0.40000000  0.66666667  1.333333e-02
  0.00000000  0.60000000  0.00000000  1.333333e-02
  0.00000000  0.60000000  0.33333333  1.333333e-02
  0.00000000  0.60000000  0.66666667  1.333333e-02
  0.00000000  0.80000000  0.00000000  1.333333e-02
  0.00000000  0.80000000  0.33333333  1.333333e-02
  0.00000000  0.80000000  0.66666667  1.333333e-02
  0.20000000  0.00000000  0.00000000  1.333333e-02
  0.20000000  0.00000000  0.33333333  1.333333e-02
  0.20000000  0.00000000  0.66666667  1.333333e-02
  0.20000000  0.20000000  0.00000000  1.333333e-02
  0.20000000  0.20000000  0.33333333  1.333333e-02
  0.20000000  0.20000000  0.66666667  1.333333e-02
  0.20000000  0.40000000  0.00000000  1.333333e-02
  0.20000000  0.40000000  0.33333333  1.333333e-02
  0.20000000  0.40000000  0.66666667  1.333333e-02
  0.20000000  0.60000000  0.00000000  1.333333e-02
  0.20000000  0.60000000  0.33333333  1.333333e-02
  0.20000000  0.60000000  0.66666667  1.333333e-02
  0.20000000  0.80000000  0.00000000  1.333333e-02
  0.20000000  0.80000000  0.33333333  1.333333e-02
  0.20000000  0.80000000  0.66666667  1.333333e-02
  0.40000000  0.00000000  0.00000000  1.333333e-02
  0.40000000  0.00000000  0.33333333  1.333333e-02
  0.40000000  0.00000000  0.66666667  1.333333e-02
  0.40000000  0.20000000  0.00000000  1.333333e-02
  0.40000000  0.20000000  0.33333333  1.333333e-02
  0.40000000  0.20000000  0.66666667  1.333333e-02
  0.40000000  0.40000000  0.00000000  1.333333e-02
  0.40000000  0.40000000  0.33333333  1.333333e-02
  0.40000000  0.40000000  0.66666667  1.333333e-02
  0.40000000  0.60000000  0.00000000  1.333333e-02
  0.40000000  0.60000000  0.33333333  1.333333e-02
  0.40000000  0.60000000  0.66666667  1.333333e-02
  0.40000000  0.80000000  0.00000000  1.333333e-02
  0.40000000  0.80000000  0.33333333  1.333333e-02
  0.40000000  0.80000000  0.66666667  1.333333e-02
  0.60000000  0.00000000  0.00000000  1.333333e-02
  0.60000000  0.00000000  0.33333333  1.333333e-02
  0.60000000  0.00000000  0.66666667  1.333333e-02
  0.60000000  0.20000000  0.00000000  1.333333e-02
  0.60000000  0.20000000  0.33333333  1.333333e-02
  0.60000000  0.20000000  0.66666667  1.333333e-02
  0.60000000  0.40000000  0.00000000  1.333333e-02
  0.60000000  0.40000000  0.33333333  1.333333e-02
  0.60000000  0.40000000  0.66666667  1.333333e-02
  0.60000000  0.60000000  0.00000000  1.333333e-02
  0.60000000  0.60000000  0.33333333  1.333333e-02
  0.60000000  0.60000000  0.66666667  1.333333e-02
  0.60000000  0.80000000  0.00000000  1.333333e-02
  0.60000000  0.80000000  0.33333333  1.333333e-02
  0.60000000  0.80000000  0.66666667  1.333333e-02
  0.80000000  0.00000000  0.00000000  1.333333e-02
  0.80000000  0.00000000  0.33333333  1.333333e-02
  0.80000000  0.00000000  0.66666667  1.333333e-02
  0.80000000  0.20000000  0.00000000  1.333333e-02
  0.80000000  0.20000000  0.33333333  1.333333e-02
  0.80000000  0.20000000  0.66666667  1.333333e-02
  0.80000000  0.40000000  0.00000000  1.333333e-02
  0.80000000  0.40000000  0.33333333  1.333333e-02
  0.80000000  0.40000000  0.66666667  1.333333e-02
  0.80000000  0.60000000  0.00000000  1.333333e-02
  0.80000000  0.60000000  0.33333333  1.333333e-02
  0.80000000  0.60000000  0.66666667  1.333333e-02
  0.80000000  0.80000000  0.00000000  1.333333e-02
  0.80000000  0.80000000  0.33333333  1.333333e-02
  0.80000000  0.80000000  0.66666667  1.333333e-02
