num_wann  = 48
num_bands = 60

# disentanglement-only WFs
num_iter = 0

dis_num_iter  = 5000
dis_froz_max  = 7.6394
dis_win_max   = 16.6394
dis_mix_ratio = 0.5
dis_conv_tol  = 1E-10

begin unit_cell_cart
Bohr
7.894800000000000 0.000000000000000 0.000000000000000
-3.947400000000000 6.837097357797870 0.000000000000000
0.000000000000000 0.000000000000000 19.80094788000000

end unit_cell_cart
begin atoms_frac
Ge  0.33333333 -0.33333333  0.4058502
Te -0.33333333  0.33333333  0.2608165
Ge  0.00000000  0.00000000  0.0725168
Te  0.33333333 -0.33333333 -0.0725168
Ge -0.33333333  0.33333333 -0.2608165
Te  0.00000000  0.00000000 -0.4058502
end atoms_frac
spinors = .true.

begin Projections
!Ge:px;py;pz;s
!Te:px;py;pz;s
f=  0.33333333, -0.33333333,  0.4058502:px;py;pz;s
f= -0.33333333,  0.33333333,  0.2608165:px;py;pz;s
f=  0.00000000,  0.00000000,  0.0725168:px;py;pz;s
f=  0.33333333, -0.33333333, -0.0725168:px;py;pz;s
f= -0.33333333,  0.33333333, -0.2608165:px;py;pz;s
f=  0.00000000,  0.00000000, -0.4058502:px;py;pz;s
end Projections

write_hr = .true.

mp_grid : 5 5 3
begin kpoints
  0.00000000  0.00000000  0.00000000
  0.00000000  0.00000000  0.33333333
  0.00000000  0.00000000  0.66666667
  0.00000000  0.20000000  0.00000000
  0.00000000  0.20000000  0.33333333
  0.00000000  0.20000000  0.66666667
  0.00000000  0.40000000  0.00000000
  0.00000000  0.40000000  0.33333333
  0.00000000  0.40000000  0.66666667
  0.00000000  0.60000000  0.00000000
  0.00000000  0.60000000  0.33333333
  0.00000000  0.60000000  0.66666667
  0.00000000  0.80000000  0.00000000
  0.00000000  0.80000000  0.33333333
  0.00000000  0.80000000  0.66666667
  0.20000000  0.00000000  0.00000000
  0.20000000  0.00000000  0.33333333
  0.20000000  0.00000000  0.66666667
  0.20000000  0.20000000  0.00000000
  0.20000000  0.20000000  0.33333333
  0.20000000  0.20000000  0.66666667
  0.20000000  0.40000000  0.00000000
  0.20000000  0.40000000  0.33333333
  0.20000000  0.40000000  0.66666667
  0.20000000  0.60000000  0.00000000
  0.20000000  0.60000000  0.33333333
  0.20000000  0.60000000  0.66666667
  0.20000000  0.80000000  0.00000000
  0.20000000  0.80000000  0.33333333
  0.20000000  0.80000000  0.66666667
  0.40000000  0.00000000  0.00000000
  0.40000000  0.00000000  0.33333333
  0.40000000  0.00000000  0.66666667
  0.40000000  0.20000000  0.00000000
  0.40000000  0.20000000  0.33333333
  0.40000000  0.20000000  0.66666667
  0.40000000  0.40000000  0.00000000
  0.40000000  0.40000000  0.33333333
  0.40000000  0.40000000  0.66666667
  0.40000000  0.60000000  0.00000000
  0.40000000  0.60000000  0.33333333
  0.40000000  0.60000000  0.66666667
  0.40000000  0.80000000  0.00000000
  0.40000000  0.80000000  0.33333333
  0.40000000  0.80000000  0.66666667
  0.60000000  0.00000000  0.00000000
  0.60000000  0.00000000  0.33333333
  0.60000000  0.00000000  0.66666667
  0.60000000  0.20000000  0.00000000
  0.60000000  0.20000000  0.33333333
  0.60000000  0.20000000  0.66666667
  0.60000000  0.40000000  0.00000000
  0.60000000  0.40000000  0.33333333
  0.60000000  0.40000000  0.66666667
  0.60000000  0.60000000  0.00000000
  0.60000000  0.60000000  0.33333333
  0.60000000  0.60000000  0.66666667
  0.60000000  0.80000000  0.00000000
  0.60000000  0.80000000  0.33333333
  0.60000000  0.80000000  0.66666667
  0.80000000  0.00000000  0.00000000
  0.80000000  0.00000000  0.33333333
  0.80000000  0.00000000  0.66666667
  0.80000000  0.20000000  0.00000000
  0.80000000  0.20000000  0.33333333
  0.80000000  0.20000000  0.66666667
  0.80000000  0.40000000  0.00000000
  0.80000000  0.40000000  0.33333333
  0.80000000  0.40000000  0.66666667
  0.80000000  0.60000000  0.00000000
  0.80000000  0.60000000  0.33333333
  0.80000000  0.60000000  0.66666667
  0.80000000  0.80000000  0.00000000
  0.80000000  0.80000000  0.33333333
  0.80000000  0.80000000  0.66666667
end kpoints