&inputpp
   outdir = 'temp/'
   prefix = 'diam.slab'
   seedname = 'slab/diam.slab'
   spin_component = 'none'
   write_mmn = .true.
   write_amn = .true.
/
