&control
  calculation = 'bands'
  restart_mode = 'from_scratch',
  prefix = 'diam.slab'
  pseudo_dir = '../pseudo/'
  outdir = 'temp/'
  verbosity = 'high'
/
&system
  ibrav = 4
  celldm(1) = 4.7659
  celldm(3) = 19.59592
  nat = 30
  ntyp = 1
  ecutwfc = 60.0
  nbnd = 150
/
&electrons
  conv_thr =  1.0d-10
/
ATOMIC_SPECIES
 C  12.0  C.rel-pbesol-nc.UPF
ATOMIC_POSITIONS {crystal}
C -0.3333333   0.0000000  -0.3392857
C  0.3333333   0.3333333  -0.3273809
C  0.3333333   0.3333333  -0.2916666
C  0.0000000  -0.3333333  -0.2797619
C  0.0000000  -0.3333333  -0.2440477
C -0.3333333   0.0000000  -0.2321429
C -0.3333333   0.0000000  -0.1964286
C  0.3333333   0.3333333  -0.1845238
C  0.3333333   0.3333333  -0.1488095
C  0.0000000  -0.3333333  -0.1369048
C  0.0000000  -0.3333333  -0.1011905
C -0.3333333   0.0000000  -0.0892857
C -0.3333333   0.0000000  -0.0535714
C  0.3333333   0.3333333  -0.0416666
C  0.3333333   0.3333333  -0.0059523
C  0.0000000  -0.3333333   0.0059523
C  0.0000000  -0.3333333   0.0416666
C -0.3333333   0.0000000   0.0535714
C -0.3333333   0.0000000   0.0892857
C  0.3333333   0.3333333   0.1011905
C  0.3333333   0.3333333   0.1369048
C  0.0000000  -0.3333333   0.1488095
C  0.0000000  -0.3333333   0.1845238
C -0.3333333   0.0000000   0.1964286
C -0.3333333   0.0000000   0.2321429
C  0.3333333   0.3333333   0.2440477
C  0.3333333   0.3333333   0.2797619
C  0.0000000  -0.3333333   0.2916666
C  0.0000000  -0.3333333   0.3273809
C -0.3333333   0.0000000   0.3392857
K_POINTS crystal
25
  0.00000000  0.00000000  0.00000000  4.000000e-02
  0.00000000  0.20000000  0.00000000  4.000000e-02
  0.00000000  0.40000000  0.00000000  4.000000e-02
  0.00000000  0.60000000  0.00000000  4.000000e-02
  0.00000000  0.80000000  0.00000000  4.000000e-02
  0.20000000  0.00000000  0.00000000  4.000000e-02
  0.20000000  0.20000000  0.00000000  4.000000e-02
  0.20000000  0.40000000  0.00000000  4.000000e-02
  0.20000000  0.60000000  0.00000000  4.000000e-02
  0.20000000  0.80000000  0.00000000  4.000000e-02
  0.40000000  0.00000000  0.00000000  4.000000e-02
  0.40000000  0.20000000  0.00000000  4.000000e-02
  0.40000000  0.40000000  0.00000000  4.000000e-02
  0.40000000  0.60000000  0.00000000  4.000000e-02
  0.40000000  0.80000000  0.00000000  4.000000e-02
  0.60000000  0.00000000  0.00000000  4.000000e-02
  0.60000000  0.20000000  0.00000000  4.000000e-02
  0.60000000  0.40000000  0.00000000  4.000000e-02
  0.60000000  0.60000000  0.00000000  4.000000e-02
  0.60000000  0.80000000  0.00000000  4.000000e-02
  0.80000000  0.00000000  0.00000000  4.000000e-02
  0.80000000  0.20000000  0.00000000  4.000000e-02
  0.80000000  0.40000000  0.00000000  4.000000e-02
  0.80000000  0.60000000  0.00000000  4.000000e-02
  0.80000000  0.80000000  0.00000000  4.000000e-02
