num_wann  = 120
num_bands = 150

num_iter = 0

dis_win_max = 27.35
dis_froz_max = 14.40
dis_num_iter = 5000

begin atoms_frac
C -0.3333333   0.0000000  -0.3392857
C  0.3333333   0.3333333  -0.3273809
C  0.3333333   0.3333333  -0.2916666
C  0.0000000  -0.3333333  -0.2797619
C  0.0000000  -0.3333333  -0.2440477
C -0.3333333   0.0000000  -0.2321429
C -0.3333333   0.0000000  -0.1964286
C  0.3333333   0.3333333  -0.1845238
C  0.3333333   0.3333333  -0.1488095
C  0.0000000  -0.3333333  -0.1369048
C  0.0000000  -0.3333333  -0.1011905
C -0.3333333   0.0000000  -0.0892857
C -0.3333333   0.0000000  -0.0535714
C  0.3333333   0.3333333  -0.0416666
C  0.3333333   0.3333333  -0.0059523
C  0.0000000  -0.3333333   0.0059523
C  0.0000000  -0.3333333   0.0416666
C -0.3333333   0.0000000   0.0535714
C -0.3333333   0.0000000   0.0892857
C  0.3333333   0.3333333   0.1011905
C  0.3333333   0.3333333   0.1369048
C  0.0000000  -0.3333333   0.1488095
C  0.0000000  -0.3333333   0.1845238
C -0.3333333   0.0000000   0.1964286
C -0.3333333   0.0000000   0.2321429
C  0.3333333   0.3333333   0.2440477
C  0.3333333   0.3333333   0.2797619
C  0.0000000  -0.3333333   0.2916666
C  0.0000000  -0.3333333   0.3273809
C -0.3333333   0.0000000   0.3392857
end atoms_frac

begin projections
f=-0.3333333,  0.0000000, -0.3392857:sp3:z=-0.7071, 0.4082,-0.5774:x= 0.7071, 0.4082,-0.5774
f= 0.3333333,  0.3333333, -0.3273809:sp3:z=-0.7071,-0.4082, 0.5774:x= 0.7071,-0.4082, 0.5774
f= 0.3333333,  0.3333333, -0.2916666:sp3:z=-0.7071, 0.4082,-0.5774:x= 0.7071, 0.4082,-0.5774
f= 0.0000000, -0.3333333, -0.2797619:sp3:z=-0.7071,-0.4082, 0.5774:x= 0.7071,-0.4082, 0.5774
f= 0.0000000, -0.3333333, -0.2440477:sp3:z=-0.7071, 0.4082,-0.5774:x= 0.7071, 0.4082,-0.5774
f=-0.3333333,  0.0000000, -0.2321429:sp3:z=-0.7071,-0.4082, 0.5774:x= 0.7071,-0.4082, 0.5774
f=-0.3333333,  0.0000000, -0.1964286:sp3:z=-0.7071, 0.4082,-0.5774:x= 0.7071, 0.4082,-0.5774
f= 0.3333333,  0.3333333, -0.1845238:sp3:z=-0.7071,-0.4082, 0.5774:x= 0.7071,-0.4082, 0.5774
f= 0.3333333,  0.3333333, -0.1488095:sp3:z=-0.7071, 0.4082,-0.5774:x= 0.7071, 0.4082,-0.5774
f= 0.0000000, -0.3333333, -0.1369048:sp3:z=-0.7071,-0.4082, 0.5774:x= 0.7071,-0.4082, 0.5774
f= 0.0000000, -0.3333333, -0.1011905:sp3:z=-0.7071, 0.4082,-0.5774:x= 0.7071, 0.4082,-0.5774
f=-0.3333333,  0.0000000, -0.0892857:sp3:z=-0.7071,-0.4082, 0.5774:x= 0.7071,-0.4082, 0.5774
f=-0.3333333,  0.0000000, -0.0535714:sp3:z=-0.7071, 0.4082,-0.5774:x= 0.7071, 0.4082,-0.5774
f= 0.3333333,  0.3333333, -0.0416666:sp3:z=-0.7071,-0.4082, 0.5774:x= 0.7071,-0.4082, 0.5774
f= 0.3333333,  0.3333333, -0.0059523:sp3:z=-0.7071, 0.4082,-0.5774:x= 0.7071, 0.4082,-0.5774
f= 0.0000000, -0.3333333,  0.0059523:sp3:z=-0.7071,-0.4082, 0.5774:x= 0.7071,-0.4082, 0.5774
f= 0.0000000, -0.3333333,  0.0416666:sp3:z=-0.7071, 0.4082,-0.5774:x= 0.7071, 0.4082,-0.5774
f=-0.3333333,  0.0000000,  0.0535714:sp3:z=-0.7071,-0.4082, 0.5774:x= 0.7071,-0.4082, 0.5774
f=-0.3333333,  0.0000000,  0.0892857:sp3:z=-0.7071, 0.4082,-0.5774:x= 0.7071, 0.4082,-0.5774
f= 0.3333333,  0.3333333,  0.1011905:sp3:z=-0.7071,-0.4082, 0.5774:x= 0.7071,-0.4082, 0.5774
f= 0.3333333,  0.3333333,  0.1369048:sp3:z=-0.7071, 0.4082,-0.5774:x= 0.7071, 0.4082,-0.5774
f= 0.0000000, -0.3333333,  0.1488095:sp3:z=-0.7071,-0.4082, 0.5774:x= 0.7071,-0.4082, 0.5774
f= 0.0000000, -0.3333333,  0.1845238:sp3:z=-0.7071, 0.4082,-0.5774:x= 0.7071, 0.4082,-0.5774
f=-0.3333333,  0.0000000,  0.1964286:sp3:z=-0.7071,-0.4082, 0.5774:x= 0.7071,-0.4082, 0.5774
f=-0.3333333,  0.0000000,  0.2321429:sp3:z=-0.7071, 0.4082,-0.5774:x= 0.7071, 0.4082,-0.5774
f= 0.3333333,  0.3333333,  0.2440477:sp3:z=-0.7071,-0.4082, 0.5774:x= 0.7071,-0.4082, 0.5774
f= 0.3333333,  0.3333333,  0.2797619:sp3:z=-0.7071, 0.4082,-0.5774:x= 0.7071, 0.4082,-0.5774
f= 0.0000000, -0.3333333,  0.2916666:sp3:z=-0.7071,-0.4082, 0.5774:x= 0.7071,-0.4082, 0.5774
f= 0.0000000, -0.3333333,  0.3273809:sp3:z=-0.7071, 0.4082,-0.5774:x= 0.7071, 0.4082,-0.5774
f=-0.3333333,  0.0000000,  0.3392857:sp3:z=-0.7071,-0.4082, 0.5774:x= 0.7071,-0.4082, 0.5774
end projections

begin unit_cell_cart
Bohr
 4.76590 0.000000000000000 0.0000000000
-2.38295 4.127390471896549 0.0000000000
 0.00000 0.000000000000000 81.718170737
end unit_cell_cart

write_hr = .true.

mp_grid = 5 5 1
begin kpoints
  0.00000000  0.00000000  0.00000000
  0.00000000  0.20000000  0.00000000
  0.00000000  0.40000000  0.00000000
  0.00000000  0.60000000  0.00000000
  0.00000000  0.80000000  0.00000000
  0.20000000  0.00000000  0.00000000
  0.20000000  0.20000000  0.00000000
  0.20000000  0.40000000  0.00000000
  0.20000000  0.60000000  0.00000000
  0.20000000  0.80000000  0.00000000
  0.40000000  0.00000000  0.00000000
  0.40000000  0.20000000  0.00000000
  0.40000000  0.40000000  0.00000000
  0.40000000  0.60000000  0.00000000
  0.40000000  0.80000000  0.00000000
  0.60000000  0.00000000  0.00000000
  0.60000000  0.20000000  0.00000000
  0.60000000  0.40000000  0.00000000
  0.60000000  0.60000000  0.00000000
  0.60000000  0.80000000  0.00000000
  0.80000000  0.00000000  0.00000000
  0.80000000  0.20000000  0.00000000
  0.80000000  0.40000000  0.00000000
  0.80000000  0.60000000  0.00000000
  0.80000000  0.80000000  0.00000000
end kpoints 
