&control
  calculation = 'scf'
  restart_mode = 'from_scratch',
  prefix = 'diam.slab'
  pseudo_dir = '../pseudo/'
  outdir = 'temp/'
/
&system
  ibrav = 4
  celldm(1) = 4.7659
  celldm(3) = 17.14643
  nat = 30
  ntyp = 1
  ecutwfc = 60.0
  occupations = 'smearing'
  smearing = 'm-v'
  degauss = 0.02
/
&electrons
  mixing_mode = 'local-TF'
  mixing_beta = 0.1
  conv_thr =  1.0d-10
/
ATOMIC_SPECIES
 C  12.0  C.rel-pbesol-nc.UPF
ATOMIC_POSITIONS {crystal}
C -0.3333333   0.0000000  -0.3392857
C  0.3333333   0.3333333  -0.3273809
C  0.3333333   0.3333333  -0.2916666
C  0.0000000  -0.3333333  -0.2797619
C  0.0000000  -0.3333333  -0.2440477
C -0.3333333   0.0000000  -0.2321429
C -0.3333333   0.0000000  -0.1964286
C  0.3333333   0.3333333  -0.1845238
C  0.3333333   0.3333333  -0.1488095
C  0.0000000  -0.3333333  -0.1369048
C  0.0000000  -0.3333333  -0.1011905
C -0.3333333   0.0000000  -0.0892857
C -0.3333333   0.0000000  -0.0535714
C  0.3333333   0.3333333  -0.0416666
C  0.3333333   0.3333333  -0.0059523
C  0.0000000  -0.3333333   0.0059523
C  0.0000000  -0.3333333   0.0416666
C -0.3333333   0.0000000   0.0535714
C -0.3333333   0.0000000   0.0892857
C  0.3333333   0.3333333   0.1011905
C  0.3333333   0.3333333   0.1369048
C  0.0000000  -0.3333333   0.1488095
C  0.0000000  -0.3333333   0.1845238
C -0.3333333   0.0000000   0.1964286
C -0.3333333   0.0000000   0.2321429
C  0.3333333   0.3333333   0.2440477
C  0.3333333   0.3333333   0.2797619
C  0.0000000  -0.3333333   0.2916666
C  0.0000000  -0.3333333   0.3273809
C -0.3333333   0.0000000   0.3392857
K_POINTS {automatic}
 7 7 1 0 0 0
