&control
  calculation  = 'scf'
  restart_mode = 'from_scratch'
  prefix       = 'GeTe.slab'
  pseudo_dir   = '../pseudo/'
  outdir       = 'temp/'
/
&system
  ibrav     = 4
  celldm(1) = 7.8948
  celldm(3) = 15.0486
  nat       = 30
  ntyp      = 2
  ecutwfc   = 50
  noncolin  = .TRUE.
  lspinorb  = .TRUE.
  starting_magnetization(1) = 0.0
  occupations = 'smearing'
  smearing  = 'm-v'
  degauss   = 0.02
/
&electrons
  mixing_mode = 'local-TF'
  mixing_beta = 0.1
  conv_thr    = 1.d-8
/
ATOMIC_SPECIES
 Ge 72.61 Ge.rel-pbesol-n-nc.UPF
 Te 127.6 Te.rel-pbesol-n-nc.UPF
ATOMIC_POSITIONS { crystal }
Ge  0.3333333  -0.3333333   0.4009750
Te -0.3333333   0.3333333   0.3768028
Ge  0.0000000   0.0000000   0.3454195
Te  0.3333333  -0.3333333   0.3212472
Ge -0.3333333   0.3333333   0.2898639
Te  0.0000000   0.0000000   0.2656916
Ge  0.3333333  -0.3333333   0.2343084
Te -0.3333333   0.3333333   0.2101361
Ge  0.0000000   0.0000000   0.1787528
Te  0.3333333  -0.3333333   0.1545805
Ge -0.3333333   0.3333333   0.1231973
Te  0.0000000   0.0000000   0.0990250
Ge  0.3333333  -0.3333333   0.0676417
Te -0.3333333   0.3333333   0.0434694
Ge  0.0000000   0.0000000   0.0120861
Te  0.3333333  -0.3333333  -0.0120861
Ge -0.3333333   0.3333333  -0.0434694
Te  0.0000000   0.0000000  -0.0676417
Ge  0.3333333  -0.3333333  -0.0990250
Te -0.3333333   0.3333333  -0.1231973
Ge  0.0000000   0.0000000  -0.1545805
Te  0.3333333  -0.3333333  -0.1787528
Ge -0.3333333   0.3333333  -0.2101361
Te  0.0000000   0.0000000  -0.2343084
Ge  0.3333333  -0.3333333  -0.2656916
Te -0.3333333   0.3333333  -0.2898639
Ge  0.0000000   0.0000000  -0.3212472
Te  0.3333333  -0.3333333  -0.3454195
Ge -0.3333333   0.3333333  -0.3768028
Te  0.0000000   0.0000000  -0.4009750
K_POINTS { automatic }
 7 7 1 0 0 0

