num_wann  = 240
num_bands = 300

num_iter  = 0

# disentanglement
dis_froz_max  = 5.8734
dis_win_max   = 14.8734
dis_num_iter  = 20000
dis_mix_ratio = 0.5
dis_conv_tol  = 1.d-10

begin unit_cell_cart
Bohr
7.894800000000000 0.000000000000000 0.000000000000000
-3.947400000000000 6.837097357797870 0.000000000000000
0.000000000000000 0.000000000000000 118.80568728
end unit_cell_cart

begin atoms_frac
Ge  0.3333333  -0.3333333   0.4009750
Te -0.3333333   0.3333333   0.3768028
Ge  0.0000000   0.0000000   0.3454195
Te  0.3333333  -0.3333333   0.3212472
Ge -0.3333333   0.3333333   0.2898639
Te  0.0000000   0.0000000   0.2656916
Ge  0.3333333  -0.3333333   0.2343084
Te -0.3333333   0.3333333   0.2101361
Ge  0.0000000   0.0000000   0.1787528
Te  0.3333333  -0.3333333   0.1545805
Ge -0.3333333   0.3333333   0.1231973
Te  0.0000000   0.0000000   0.0990250
Ge  0.3333333  -0.3333333   0.0676417
Te -0.3333333   0.3333333   0.0434694
Ge  0.0000000   0.0000000   0.0120861
Te  0.3333333  -0.3333333  -0.0120861
Ge -0.3333333   0.3333333  -0.0434694
Te  0.0000000   0.0000000  -0.0676417
Ge  0.3333333  -0.3333333  -0.0990250
Te -0.3333333   0.3333333  -0.1231973
Ge  0.0000000   0.0000000  -0.1545805
Te  0.3333333  -0.3333333  -0.1787528
Ge -0.3333333   0.3333333  -0.2101361
Te  0.0000000   0.0000000  -0.2343084
Ge  0.3333333  -0.3333333  -0.2656916
Te -0.3333333   0.3333333  -0.2898639
Ge  0.0000000   0.0000000  -0.3212472
Te  0.3333333  -0.3333333  -0.3454195
Ge -0.3333333   0.3333333  -0.3768028
Te  0.0000000   0.0000000  -0.4009750
end atoms_frac
spinors = .true.

begin Projections
!Ge:px;py;pz;s
!Te:px;py;pz;s
f= 0.3333333, -0.3333333,  0.4009750:px;py;pz;s
f=-0.3333333,  0.3333333,  0.3768028:px;py;pz;s
f= 0.0000000,  0.0000000,  0.3454195:px;py;pz;s
f= 0.3333333, -0.3333333,  0.3212472:px;py;pz;s
f=-0.3333333,  0.3333333,  0.2898639:px;py;pz;s
f= 0.0000000,  0.0000000,  0.2656916:px;py;pz;s
f= 0.3333333, -0.3333333,  0.2343084:px;py;pz;s
f=-0.3333333,  0.3333333,  0.2101361:px;py;pz;s
f= 0.0000000,  0.0000000,  0.1787528:px;py;pz;s
f= 0.3333333, -0.3333333,  0.1545805:px;py;pz;s
f=-0.3333333,  0.3333333,  0.1231973:px;py;pz;s
f= 0.0000000,  0.0000000,  0.0990250:px;py;pz;s
f= 0.3333333, -0.3333333,  0.0676417:px;py;pz;s
f=-0.3333333,  0.3333333,  0.0434694:px;py;pz;s
f= 0.0000000,  0.0000000,  0.0120861:px;py;pz;s
f= 0.3333333, -0.3333333, -0.0120861:px;py;pz;s
f=-0.3333333,  0.3333333, -0.0434694:px;py;pz;s
f= 0.0000000,  0.0000000, -0.0676417:px;py;pz;s
f= 0.3333333, -0.3333333, -0.0990250:px;py;pz;s
f=-0.3333333,  0.3333333, -0.1231973:px;py;pz;s
f= 0.0000000,  0.0000000, -0.1545805:px;py;pz;s
f= 0.3333333, -0.3333333, -0.1787528:px;py;pz;s
f=-0.3333333,  0.3333333, -0.2101361:px;py;pz;s
f= 0.0000000,  0.0000000, -0.2343084:px;py;pz;s
f= 0.3333333, -0.3333333, -0.2656916:px;py;pz;s
f=-0.3333333,  0.3333333, -0.2898639:px;py;pz;s
f= 0.0000000,  0.0000000, -0.3212472:px;py;pz;s
f= 0.3333333, -0.3333333, -0.3454195:px;py;pz;s
f=-0.3333333,  0.3333333, -0.3768028:px;py;pz;s
f= 0.0000000,  0.0000000, -0.4009750:px;py;pz;s
end Projections

write_hr = .true.

mp_grid : 5 5 1
begin kpoints
  0.00000000  0.00000000  0.00000000
  0.00000000  0.20000000  0.00000000
  0.00000000  0.40000000  0.00000000
  0.00000000  0.60000000  0.00000000
  0.00000000  0.80000000  0.00000000
  0.20000000  0.00000000  0.00000000
  0.20000000  0.20000000  0.00000000
  0.20000000  0.40000000  0.00000000
  0.20000000  0.60000000  0.00000000
  0.20000000  0.80000000  0.00000000
  0.40000000  0.00000000  0.00000000
  0.40000000  0.20000000  0.00000000
  0.40000000  0.40000000  0.00000000
  0.40000000  0.60000000  0.00000000
  0.40000000  0.80000000  0.00000000
  0.60000000  0.00000000  0.00000000
  0.60000000  0.20000000  0.00000000
  0.60000000  0.40000000  0.00000000
  0.60000000  0.60000000  0.00000000
  0.60000000  0.80000000  0.00000000
  0.80000000  0.00000000  0.00000000
  0.80000000  0.20000000  0.00000000
  0.80000000  0.40000000  0.00000000
  0.80000000  0.60000000  0.00000000
  0.80000000  0.80000000  0.00000000
end kpoints